&control
  calculation = 'scf'
  prefix = 'GaAs'
  pseudo_dir = '/shared/home/lun364/ap275_final_project_2025'
  outdir = '/shared/home/lun364/ap275_final_project_2025/GaAs_test_phonon/tmp/'
  verbosity = 'high'
  wf_collect = .true.
/
&system
  ibrav = 2 
  celldm(1) = 10.68
  nat = 2 !12
  ntyp = 2 !3
  !nspin = 4
  !starting_magnetization(1)=3 ! (up 3, down-3 ,down-3, up 3)
  ecutwfc = 35
  ecutrho = 210
  !vdw_corr='grimme-d3'
  !occupations= 'smearing',
  !smearing='mp',
  !degauss=0.02,
/
&electrons
  mixing_beta = 0.7
  conv_thr = 1.0e-6      ! was 1.0e-8
  diagonalization = 'david'
/

/
ATOMIC_SPECIES
  Ga 69.723    ga_pbe_v1.4.uspp.F.UPF
  As 74.921595 as_pbe_v1.uspp.F.UPF
ATOMIC_POSITIONS crystal
  Ga 0.00 0.00 0.00
  As 0.25 0.25 0.25
K_POINTS automatic
  4 4 4 0 0 0
