&inputph
  prefix='UOTe'
  outdir='/shared/home/lun364/ap275_final_project_2025/UOTe_phonon/tmp/'
  tr2_ph=1.0d-7
  ldisp=.true.
  nq1=1, nq2=1, nq3=1
  fildyn='UOTe.dyn'
  epsil=.false.
/
