&input
  fildyn='UOTe.dyn'
  flfrc='UOTe.fc'
  zasr='crystal'
/
